solution status: optimal solution found
objective value:                                 -238
C0007                                               1 	(obj:-1)
C0009                                               1 	(obj:-1)
C0021                                               1 	(obj:-1)
C0025                                               1 	(obj:-1)
C0033                                               1 	(obj:-1)
C0037                                               1 	(obj:-1)
C0049                                               1 	(obj:-1)
C0053                                               1 	(obj:-1)
C0061                                               1 	(obj:-1)
C0070                                               1 	(obj:-1)
C0077                                               1 	(obj:-1)
C0082                                               1 	(obj:-1)
C0091                                               1 	(obj:-1)
C0098                                               1 	(obj:-1)
C0105                                               1 	(obj:-1)
C0110                                               1 	(obj:-1)
C0114                                               1 	(obj:-1)
C0126                                               1 	(obj:-1)
C0133                                               1 	(obj:-1)
C0137                                               1 	(obj:-1)
C0147                                               1 	(obj:-1)
C0154                                               1 	(obj:-1)
C0161                                               1 	(obj:-1)
C0168                                               1 	(obj:-1)
C0174                                               1 	(obj:-1)
C0191                                               1 	(obj:-1)
C0198                                               1 	(obj:-1)
C0205                                               1 	(obj:-1)
C0212                                               1 	(obj:-1)
C0219                                               1 	(obj:-1)
C0223                                               1 	(obj:-1)
C0226                                               1 	(obj:-1)
C0231                                               1 	(obj:-1)
C0235                                               1 	(obj:-1)
C0239                                               1 	(obj:-1)
C0243                                               1 	(obj:-1)
C0247                                               1 	(obj:-1)
C0250                                               1 	(obj:-1)
C0255                                               1 	(obj:-1)
C0259                                               1 	(obj:-1)
C0266                                               1 	(obj:-1)
C0267                                               1 	(obj:-1)
C0280                                               1 	(obj:-1)
C0287                                               1 	(obj:-1)
C0303                                               1 	(obj:-1)
C0307                                               1 	(obj:-1)
C0311                                               1 	(obj:-1)
C0327                                               1 	(obj:-1)
C0331                                               1 	(obj:-1)
C0334                                               1 	(obj:-1)
C0338                                               1 	(obj:-1)
C0343                                               1 	(obj:-1)
C0344                                               1 	(obj:-1)
C0351                                               1 	(obj:-1)
C0355                                               1 	(obj:-1)
C0359                                               1 	(obj:-1)
C0363                                               1 	(obj:-1)
C0367                                               1 	(obj:-1)
C0371                                               1 	(obj:-1)
C0375                                               1 	(obj:-1)
C0379                                               1 	(obj:-1)
C0383                                               1 	(obj:-1)
C0386                                               1 	(obj:-1)
C0394                                               1 	(obj:-1)
C0397                                               1 	(obj:-1)
C0402                                               1 	(obj:-1)
C0406                                               1 	(obj:-1)
C0410                                               1 	(obj:-1)
C0414                                               1 	(obj:-1)
C0417                                               1 	(obj:-1)
C0419                                               1 	(obj:-1)
C0426                                               1 	(obj:-1)
C0430                                               1 	(obj:-1)
C0431                                               1 	(obj:-1)
C0435                                               1 	(obj:-1)
C0442                                               1 	(obj:-1)
C0449                                               1 	(obj:-1)
C0461                                               1 	(obj:-1)
C0469                                               1 	(obj:-1)
C0476                                               1 	(obj:-1)
C0482                                               1 	(obj:-1)
C0490                                               1 	(obj:-1)
C0497                                               1 	(obj:-1)
C0501                                               1 	(obj:-1)
C0505                                               1 	(obj:-1)
C0508                                               1 	(obj:-1)
C0513                                               1 	(obj:-1)
C0517                                               1 	(obj:-1)
C0521                                               1 	(obj:-1)
C0524                                               1 	(obj:-1)
C0528                                               1 	(obj:-1)
C0530                                               1 	(obj:-1)
C0536                                               1 	(obj:-1)
C0559                                               1 	(obj:-1)
C0565                                               1 	(obj:-1)
C0567                                               1 	(obj:-1)
C0571                                               1 	(obj:-1)
C0578                                               1 	(obj:-1)
C0581                                               1 	(obj:-1)
C0583                                               1 	(obj:-1)
C0590                                               1 	(obj:-1)
C0617                                               1 	(obj:-1)
C0624                                               1 	(obj:-1)
C0629                                               1 	(obj:-1)
C0650                                               1 	(obj:-1)
C0657                                               1 	(obj:-1)
C0664                                               1 	(obj:-1)
C0668                                               1 	(obj:-1)
C0672                                               1 	(obj:-1)
C0676                                               1 	(obj:-1)
C0677                                               1 	(obj:-1)
C0683                                               1 	(obj:-1)
C0707                                               1 	(obj:-1)
C0714                                               1 	(obj:-1)
C0716                                               1 	(obj:-1)
C0722                                               1 	(obj:-1)
C0728                                               1 	(obj:-1)
C0736                                               1 	(obj:-1)
C0738                                               1 	(obj:-1)
C0774                                               1 	(obj:-1)
C0786                                               1 	(obj:-1)
C0822                                               1 	(obj:-1)
C0824                                               1 	(obj:-1)
C0828                                               1 	(obj:-1)
C0848                                               1 	(obj:-1)
C0852                                               1 	(obj:-1)
C0862                                               1 	(obj:-1)
C0864                                               1 	(obj:-1)
C0869                                               1 	(obj:-1)
C0893                                               1 	(obj:-1)
C0902                                               1 	(obj:-1)
C0903                                               1 	(obj:-1)
C0906                                               1 	(obj:-1)
C0908                                               1 	(obj:-1)
C0915                                               1 	(obj:-1)
C0918                                               1 	(obj:-1)
C0919                                               1 	(obj:-1)
C0921                                               1 	(obj:-1)
C0926                                               1 	(obj:-1)
C0927                                               1 	(obj:-1)
C0946                                               1 	(obj:-1)
C0965                                               1 	(obj:-1)
C0967                                               1 	(obj:-1)
C0983                                               1 	(obj:-1)
C0985                                               1 	(obj:-1)
C0993                                               1 	(obj:-1)
C0995                                               1 	(obj:-1)
C1003                                               1 	(obj:-1)
C1005                                               1 	(obj:-1)
C1012                                               1 	(obj:-1)
C1017                                               1 	(obj:-1)
C1023                                               1 	(obj:-1)
C1027                                               1 	(obj:-1)
C1032                                               1 	(obj:-1)
C1052                                               1 	(obj:-1)
C1057                                               1 	(obj:-1)
C1062                                               1 	(obj:-1)
C1068                                               1 	(obj:-1)
C1072                                               1 	(obj:-1)
C1077                                               1 	(obj:-1)
C1082                                               1 	(obj:-1)
C1085                                               1 	(obj:-1)
C1092                                               1 	(obj:-1)
C1097                                               1 	(obj:-1)
C1102                                               1 	(obj:-1)
C1107                                               1 	(obj:-1)
C1112                                               1 	(obj:-1)
C1115                                               1 	(obj:-1)
C1122                                               1 	(obj:-1)
C1128                                               1 	(obj:-1)
C1129                                               1 	(obj:-1)
C1137                                               1 	(obj:-1)
C1142                                               1 	(obj:-1)
C1160                                               1 	(obj:-1)
C1167                                               1 	(obj:-1)
C1172                                               1 	(obj:-1)
C1192                                               1 	(obj:-1)
C1197                                               1 	(obj:-1)
C1200                                               1 	(obj:-1)
C1207                                               1 	(obj:-1)
C1210                                               1 	(obj:-1)
C1215                                               1 	(obj:-1)
C1222                                               1 	(obj:-1)
C1227                                               1 	(obj:-1)
C1232                                               1 	(obj:-1)
C1237                                               1 	(obj:-1)
C1242                                               1 	(obj:-1)
C1247                                               1 	(obj:-1)
C1252                                               1 	(obj:-1)
C1257                                               1 	(obj:-1)
C1262                                               1 	(obj:-1)
C1265                                               1 	(obj:-1)
C1269                                               1 	(obj:-1)
C1274                                               1 	(obj:-1)
C1279                                               1 	(obj:-1)
C1284                                               1 	(obj:-1)
C1289                                               1 	(obj:-1)
C1294                                               1 	(obj:-1)
C1299                                               1 	(obj:-1)
C1302                                               1 	(obj:-1)
C1309                                               1 	(obj:-1)
C1314                                               1 	(obj:-1)
C1317                                               1 	(obj:-1)
C1321                                               1 	(obj:-1)
C1326                                               1 	(obj:-1)
C1331                                               1 	(obj:-1)
C1339                                               1 	(obj:-1)
C1345                                               1 	(obj:-1)
C1350                                               1 	(obj:-1)
C1352                                               1 	(obj:-1)
C1358                                               1 	(obj:-1)
C1365                                               1 	(obj:-1)
C1369                                               1 	(obj:-1)
C1374                                               1 	(obj:-1)
C1377                                               1 	(obj:-1)
C1384                                               1 	(obj:-1)
C1389                                               1 	(obj:-1)
C1394                                               1 	(obj:-1)
C1399                                               1 	(obj:-1)
C1402                                               1 	(obj:-1)
C1407                                               1 	(obj:-1)
C1414                                               1 	(obj:-1)
C1432                                               1 	(obj:-1)
C1437                               0.999999999999989 	(obj:-1)
C1442                                               1 	(obj:-1)
C1447                                               1 	(obj:-1)
C1454                                               1 	(obj:-1)
C1457                                               1 	(obj:-1)
C1462                                               1 	(obj:-1)
C1469                                               1 	(obj:-1)
C1515                                               1 	(obj:-1)
C1517                                               1 	(obj:-1)
C1525                                               1 	(obj:-1)
C1527                                               1 	(obj:-1)
C1534                                               1 	(obj:-1)
C1539                                               1 	(obj:-1)
C1542                                               1 	(obj:-1)
C1547                                               1 	(obj:-1)
C1576                                               1 	(obj:0)
C1577                                               1 	(obj:0)
C1578                                               1 	(obj:0)
C1579                                               1 	(obj:0)
C1580                                               1 	(obj:0)
C1581                                               1 	(obj:0)
C1582                                               1 	(obj:0)
C1583                                               1 	(obj:0)
C1584                                               1 	(obj:0)
C1586                                               1 	(obj:0)
C1587                                               1 	(obj:0)
C1588                                               1 	(obj:0)
C1589                                               1 	(obj:0)
C1590                                               1 	(obj:0)
C1591                                               1 	(obj:0)
C1592                                               1 	(obj:0)
C1593                                               1 	(obj:0)
C1594                                               1 	(obj:0)
C1596                                               1 	(obj:0)
C1597                                               1 	(obj:0)
C1598                                               1 	(obj:0)
C1600                                               1 	(obj:0)
C1601                                               1 	(obj:0)
C1602                                               1 	(obj:0)
C1603                                               1 	(obj:0)
C1604                                               1 	(obj:0)
C1605                                               1 	(obj:0)
C1606                                               1 	(obj:0)
C1607                                               1 	(obj:0)
C1608                                               1 	(obj:0)
C1609                                               1 	(obj:0)
C1610                                               1 	(obj:0)
C1611                                               1 	(obj:0)
C1613                                               1 	(obj:0)
C1614                                               1 	(obj:0)
C1616                                               1 	(obj:0)
C1618                                               1 	(obj:0)
C1619                                               1 	(obj:0)
C1622                                               1 	(obj:0)
C1626                                               1 	(obj:0)
C1630                                               1 	(obj:0)
C1634                                               1 	(obj:0)
C1638                                               1 	(obj:0)
C1642                                               1 	(obj:0)
C1646                                               1 	(obj:0)
C1650                                               1 	(obj:0)
C1654                                               1 	(obj:0)
C1662                                               1 	(obj:0)
C1666                                               1 	(obj:0)
C1670                                               1 	(obj:0)
C1674                                               1 	(obj:0)
C1678                                               1 	(obj:0)
C1682                                               1 	(obj:0)
C1685                                               1 	(obj:0)
C1690                                               1 	(obj:0)
C1694                                               1 	(obj:0)
C1702                                               1 	(obj:0)
C1706                                               1 	(obj:0)
C1710                                               1 	(obj:0)
C1718                                               1 	(obj:0)
C1722                                               1 	(obj:0)
C1726                                               1 	(obj:0)
C1730                                               1 	(obj:0)
C1734                                               1 	(obj:0)
C1738                                               1 	(obj:0)
C1742                                               1 	(obj:0)
C1745                                               1 	(obj:0)
C1750                                               1 	(obj:0)
C1754                                               1 	(obj:0)
C1758                                               1 	(obj:0)
C1762                                               1 	(obj:0)
C1770                                               1 	(obj:0)
C1774                                               1 	(obj:0)
C1782                                               1 	(obj:0)
C1790                                               1 	(obj:0)
C1794                                               1 	(obj:0)
C1845                                               1 	(obj:0)
C2124                                               1 	(obj:0)
C2490                                               1 	(obj:0)
C2620                                               1 	(obj:0)
C2871                                               1 	(obj:0)
C3047                                               1 	(obj:0)
C3362                                               1 	(obj:0)
C3570                                               1 	(obj:0)
C3850                                               1 	(obj:0)
C4023                                               1 	(obj:0)
C4369                                               1 	(obj:0)
C4532                                               1 	(obj:0)
C4748                                               1 	(obj:0)
C4960                                               1 	(obj:0)
C5166                                               1 	(obj:0)
C5453                                               1 	(obj:0)
C5779                                               1 	(obj:0)
C5890                                               1 	(obj:0)
C6113                                               1 	(obj:0)
C6416                                               1 	(obj:0)
C6612                                               1 	(obj:0)
C6844                                               1 	(obj:0)
C7075                                               1 	(obj:0)
C7327                                               1 	(obj:0)
C7688                                               1 	(obj:0)
C8387                                               1 	(obj:0)
C8522                                               1 	(obj:0)
C8775                                               1 	(obj:0)
C9017                                               1 	(obj:0)
C9248                                               1 	(obj:0)
C9519                                               1 	(obj:0)
C9723                                               1 	(obj:0)
C9955                                               1 	(obj:0)
C10009                                              1 	(obj:0)
C10258                                              1 	(obj:0)
C10426                                              1 	(obj:0)
C10661                                              1 	(obj:0)
C10903                                              1 	(obj:0)
C10949                                              1 	(obj:0)
C11190                                              1 	(obj:0)
C11427                                              1 	(obj:0)
C11566                                              1 	(obj:0)
C11957                                              1 	(obj:0)
C12169                                              1 	(obj:0)
C12873                                              1 	(obj:0)
C13054                                              1 	(obj:0)
C13185                                              1 	(obj:0)
C13983                                              1 	(obj:0)
C14206                                              1 	(obj:0)
C14311                                              1 	(obj:0)
C14545                                              1 	(obj:0)
C14768                                              1 	(obj:0)
C14820                                              1 	(obj:0)
C15049                                              1 	(obj:0)
C15341                                              1 	(obj:0)
C15424                                              1 	(obj:0)
C15624                                              1 	(obj:0)
C15816                                              1 	(obj:0)
C16045                                              1 	(obj:0)
C16268                                              1 	(obj:0)
C16357                                              1 	(obj:0)
C16612                                              1 	(obj:0)
C16828                                              1 	(obj:0)
C16884                                              1 	(obj:0)
C17225                                              1 	(obj:0)
C17412                                              1 	(obj:0)
C17479                                              1 	(obj:0)
C17718                                              1 	(obj:0)
C17838                                              1 	(obj:0)
C18013                                              1 	(obj:0)
C18225                                              1 	(obj:0)
C18514                                              1 	(obj:0)
C18678                                              1 	(obj:0)
C18780                                              1 	(obj:0)
C18939                                              1 	(obj:0)
C19178                                              1 	(obj:0)
C19414                                              1 	(obj:0)
C19812                                              1 	(obj:0)
C19953                                              1 	(obj:0)
C20131                                              1 	(obj:0)
C20517                                              1 	(obj:0)
C20682                                              1 	(obj:0)
C20859                                              1 	(obj:0)
C21182                                              1 	(obj:0)
C21365                                              1 	(obj:0)
C21464                                              1 	(obj:0)
C21685                                              1 	(obj:0)
C21954                                              1 	(obj:0)
C22088                                              1 	(obj:0)
C22259                                              1 	(obj:0)
C22441                                              1 	(obj:0)
C22524                                              1 	(obj:0)
C22744                                              1 	(obj:0)
C23613                                              1 	(obj:0)
C23792                                              1 	(obj:0)
C23983                                              1 	(obj:0)
C24278                                              1 	(obj:0)
C24435                                              1 	(obj:0)
C24707                                              1 	(obj:0)
C24766                                              1 	(obj:0)
C24914                                              1 	(obj:0)
C26182                                              1 	(obj:0)
C26334                                              1 	(obj:0)
C26681                                              1 	(obj:0)
C27305                                              1 	(obj:0)
C27653                                              1 	(obj:0)
C27833                                              1 	(obj:0)
C27996                                              1 	(obj:0)
C28325                                              1 	(obj:0)
C28386                                              1 	(obj:0)
C28593                                              1 	(obj:0)
C28738                                              1 	(obj:0)
C29921                                              1 	(obj:0)
C30115                                              1 	(obj:0)
C30156                                              1 	(obj:0)
C30329                                              1 	(obj:0)
C30516                                              1 	(obj:0)
C30792                                              1 	(obj:0)
C30847                                              1 	(obj:0)
C31957                                              1 	(obj:0)
C32354                                              1 	(obj:0)
C33461                                              1 	(obj:0)
C33485                                              1 	(obj:0)
C33642                                              1 	(obj:0)
C34237                                              1 	(obj:0)
C34397                                              1 	(obj:0)
C34714                                              1 	(obj:0)
C34735                                              1 	(obj:0)
C34909                                              1 	(obj:0)
C35696                                              1 	(obj:0)
C35893                                              1 	(obj:0)
C35959                                              1 	(obj:0)
C36073                                              1 	(obj:0)
C36081                                              1 	(obj:0)
C36360                                              1 	(obj:0)
C36400                                              1 	(obj:0)
C36474                                              1 	(obj:0)
C36560                                              1 	(obj:0)
C36677                                              1 	(obj:0)
C36748                                              1 	(obj:0)
C37315                                              1 	(obj:0)
C37911                                              1 	(obj:0)
C37945                                              1 	(obj:0)
C38338                                              1 	(obj:0)
C38497                                              1 	(obj:0)
C38676                                              1 	(obj:0)
C38841                                              1 	(obj:0)
C39152                                              1 	(obj:0)
C39365                                              1 	(obj:0)
C39531                                              1 	(obj:0)
C39588                                              1 	(obj:0)
C39828                                              1 	(obj:0)
C40040                                              1 	(obj:0)
C40169                                              1 	(obj:0)
C40936                                              1 	(obj:0)
C41040                                              1 	(obj:0)
C41210                                              1 	(obj:0)
C41456                                              1 	(obj:0)
C41487                                              1 	(obj:0)
C41723                                              1 	(obj:0)
C41963                                              1 	(obj:0)
C42124                                              1 	(obj:0)
C42265                                              1 	(obj:0)
C42419                                              1 	(obj:0)
C42654                                              1 	(obj:0)
C42823                                              1 	(obj:0)
C43049                                              1 	(obj:0)
C43179                                              1 	(obj:0)
C43406                                              1 	(obj:0)
C43492                                              1 	(obj:0)
C43616                                              1 	(obj:0)
C43915                                              1 	(obj:0)
C44071                                              1 	(obj:0)
C44658                                              1 	(obj:0)
C44966                                              1 	(obj:0)
C45170                                              1 	(obj:0)
C45863                                              1 	(obj:0)
C45966                                              1 	(obj:0)
C46173                                              1 	(obj:0)
C46375                                              1 	(obj:0)
C46582                                              1 	(obj:0)
C46696                                              1 	(obj:0)
C46863                                              1 	(obj:0)
C46991                                              1 	(obj:0)
C47246                                              1 	(obj:0)
C47457                                              1 	(obj:0)
C47565                                              1 	(obj:0)
C47708                                              1 	(obj:0)
C47896                                              1 	(obj:0)
C48112                                              1 	(obj:0)
C48263                                              1 	(obj:0)
C48375                                              1 	(obj:0)
C48506                                              1 	(obj:0)
C48726                                              1 	(obj:0)
C48901                                              1 	(obj:0)
C49035                                              1 	(obj:0)
C49239                                              1 	(obj:0)
C49487                                              1 	(obj:0)
C49616                                              1 	(obj:0)
C49745                                              1 	(obj:0)
C49930                                              1 	(obj:0)
C50101                                              1 	(obj:0)
C50393                                              1 	(obj:0)
C50435                                              1 	(obj:0)
C50600                                              1 	(obj:0)
C50773                                              1 	(obj:0)
C50933                                              1 	(obj:0)
C51191                                              1 	(obj:0)
C51353                                              1 	(obj:0)
C51612                                              1 	(obj:0)
C51708                                              1 	(obj:0)
C51867                                              1 	(obj:0)
C52126                                              1 	(obj:0)
C52210                                              1 	(obj:0)
C52338                                              1 	(obj:0)
C52660                                              1 	(obj:0)
C52732                                              1 	(obj:0)
C52945                                              1 	(obj:0)
C53103                                              1 	(obj:0)
C53342                                              1 	(obj:0)
C53544                                              1 	(obj:0)
C53672                                              1 	(obj:0)
C54285                                              1 	(obj:0)
C54504                                              1 	(obj:0)
C54794                                              1 	(obj:0)
C54925                                              1 	(obj:0)
C55097                                              1 	(obj:0)
C55156                                              1 	(obj:0)
C55329                                              1 	(obj:0)
C55678                                              1 	(obj:0)
C57111                                              1 	(obj:0)
C57379                                              1 	(obj:0)
C57467                                              1 	(obj:0)
C57732                                              1 	(obj:0)
C57798                                              1 	(obj:0)
C58126                                              1 	(obj:0)
C58189                                              1 	(obj:0)
C58475                                              1 	(obj:0)
